c This is UnifRandomKSATGenerator
c uniform random 3-SAT generated instance with: 
c clause length: 3 
c number variables: 20 
c number clauses: 85 
c clause to variable ratio: 4.27 
c random number generator name: SHA1PRNG 
c random number generator provider: SUN 
c random number generator seed: 766625554154220664 
p cnf 20 85
-12 20 5 0
1 -2 10 0
18 -14 -7 0
8 -19 10 0
17 20 14 0
-18 2 6 0
19 -20 6 0
-1 -2 -8 0
-17 4 14 0
8 -11 14 0
-10 2 -16 0
-18 -20 15 0
1 -3 -13 0
-20 19 7 0
-11 -13 -6 0
-19 4 -7 0
-2 -19 -15 0
11 20 -14 0
16 -19 -7 0
-17 -20 14 0
10 11 20 0
8 -20 19 0
-10 9 4 0
8 18 -12 0
8 -6 -15 0
1 -14 -15 0
2 -3 5 0
-17 -10 9 0
1 2 4 0
17 -20 -8 0
1 2 7 0
10 5 14 0
3 6 15 0
-3 2 19 0
-19 -5 7 0
-6 -15 -16 0
-17 -9 3 0
-17 19 7 0
-18 -11 6 0
-3 -14 15 0
1 18 -12 0
16 -5 -15 0
9 1 3 0
20 -7 -16 0
16 3 7 0
-19 12 20 0
-2 -18 5 0
2 -4 -15 0
2 -4 -7 0
10 -6 -16 0
-2 17 -14 0
-6 -8 15 0
-17 9 14 0
-9 -17 -15 0
11 -14 7 0
2 -5 -16 0
-3 4 -15 0
-17 -4 -15 0
-2 -11 -15 0
11 3 -12 0
17 13 -7 0
-17 1 15 0
-9 1 -7 0
17 2 15 0
-1 8 -2 0
-9 11 -7 0
-20 19 -13 0
-9 16 -7 0
8 -18 14 0
-12 -5 -16 0
-18 2 -8 0
-2 -14 -8 0
8 -14 15 0
-17 2 14 0
4 7 -8 0
17 14 -7 0
-10 -2 -8 0
2 -5 13 0
8 2 13 0
-2 -3 10 0
16 -10 -15 0
2 -14 -7 0
-1 -11 6 0
-1 -9 -11 0
3 -13 14 0
